10,1,9,1,10,2,10,3,15,2,14,2,12,3,1,1,9,2,11,2,4,4,5,3,1,4,12,5;13,1,13,2,6,1,4,2,7,2,13,4,3,2,15,3,5,2,6,3,10,5,11,3,9,4,3,4,14,5,8,5,5,5;7,1,2,1,2,2,6,2,8,1,3,3,14,4,9,3,1,3,8,4,9,5,5,4,1,5;4,1,12,1,13,3,3,1,10,4,13,5,7,4,14,3,2,4,15,4,8,2,7,5,6,5,4,5,11,5,15,5;5,1,15,1,14,1,12,2,4,3,7,3,2,3,11,1,1,2,12,4,6,4,8,3,11,4,2,5,3,5;
